p edge 100 1231
e 2 1
e 8 1
e 9 1
e 14 1
e 19 1
e 20 1
e 21 1
e 30 1
e 32 1
e 41 1
e 45 1
e 51 1
e 53 1
e 55 1
e 69 1
e 78 1
e 83 1
e 84 1
e 92 1
e 98 1
e 17 2
e 24 2
e 25 2
e 27 2
e 31 2
e 32 2
e 33 2
e 34 2
e 35 2
e 41 2
e 42 2
e 45 2
e 46 2
e 48 2
e 50 2
e 55 2
e 73 2
e 76 2
e 77 2
e 82 2
e 84 2
e 88 2
e 90 2
e 94 2
e 95 2
e 100 2
e 6 3
e 10 3
e 13 3
e 16 3
e 17 3
e 20 3
e 21 3
e 22 3
e 24 3
e 48 3
e 49 3
e 51 3
e 56 3
e 59 3
e 61 3
e 71 3
e 82 3
e 88 3
e 99 3
e 100 3
e 9 4
e 11 4
e 14 4
e 15 4
e 16 4
e 17 4
e 20 4
e 28 4
e 44 4
e 45 4
e 47 4
e 51 4
e 57 4
e 61 4
e 64 4
e 65 4
e 67 4
e 68 4
e 69 4
e 73 4
e 75 4
e 79 4
e 80 4
e 89 4
e 90 4
e 96 4
e 10 5
e 14 5
e 15 5
e 19 5
e 25 5
e 33 5
e 34 5
e 58 5
e 62 5
e 65 5
e 66 5
e 68 5
e 69 5
e 72 5
e 75 5
e 76 5
e 77 5
e 83 5
e 84 5
e 88 5
e 89 5
e 95 5
e 96 5
e 13 6
e 15 6
e 16 6
e 17 6
e 29 6
e 31 6
e 33 6
e 40 6
e 45 6
e 47 6
e 50 6
e 51 6
e 57 6
e 63 6
e 65 6
e 68 6
e 73 6
e 74 6
e 79 6
e 85 6
e 86 6
e 88 6
e 91 6
e 93 6
e 96 6
e 97 6
e 98 6
e 9 7
e 12 7
e 16 7
e 21 7
e 27 7
e 31 7
e 32 7
e 35 7
e 41 7
e 42 7
e 46 7
e 57 7
e 64 7
e 69 7
e 72 7
e 83 7
e 87 7
e 88 7
e 89 7
e 91 7
e 97 7
e 98 7
e 99 7
e 100 7
e 9 8
e 10 8
e 15 8
e 17 8
e 19 8
e 22 8
e 28 8
e 29 8
e 34 8
e 43 8
e 44 8
e 45 8
e 47 8
e 50 8
e 54 8
e 59 8
e 65 8
e 69 8
e 72 8
e 78 8
e 84 8
e 86 8
e 88 8
e 91 8
e 100 8
e 12 9
e 19 9
e 20 9
e 21 9
e 29 9
e 30 9
e 31 9
e 36 9
e 38 9
e 49 9
e 52 9
e 53 9
e 55 9
e 60 9
e 82 9
e 86 9
e 90 9
e 95 9
e 98 9
e 13 10
e 15 10
e 21 10
e 27 10
e 35 10
e 43 10
e 44 10
e 46 10
e 51 10
e 55 10
e 56 10
e 58 10
e 60 10
e 61 10
e 72 10
e 73 10
e 75 10
e 77 10
e 87 10
e 94 10
e 96 10
e 97 10
e 12 11
e 15 11
e 18 11
e 21 11
e 31 11
e 33 11
e 37 11
e 41 11
e 46 11
e 47 11
e 50 11
e 52 11
e 60 11
e 64 11
e 75 11
e 78 11
e 82 11
e 90 11
e 93 11
e 94 11
e 99 11
e 26 12
e 28 12
e 29 12
e 34 12
e 36 12
e 42 12
e 43 12
e 46 12
e 49 12
e 54 12
e 62 12
e 82 12
e 84 12
e 90 12
e 14 13
e 16 13
e 31 13
e 35 13
e 36 13
e 37 13
e 40 13
e 43 13
e 44 13
e 45 13
e 54 13
e 56 13
e 66 13
e 69 13
e 70 13
e 87 13
e 90 13
e 97 13
e 98 13
e 99 13
e 16 14
e 18 14
e 21 14
e 26 14
e 36 14
e 37 14
e 39 14
e 42 14
e 43 14
e 53 14
e 56 14
e 58 14
e 62 14
e 64 14
e 68 14
e 73 14
e 74 14
e 77 14
e 83 14
e 84 14
e 87 14
e 91 14
e 92 14
e 93 14
e 97 14
e 99 14
e 16 15
e 17 15
e 22 15
e 29 15
e 33 15
e 34 15
e 36 15
e 37 15
e 43 15
e 46 15
e 48 15
e 49 15
e 50 15
e 62 15
e 65 15
e 67 15
e 73 15
e 78 15
e 79 15
e 88 15
e 89 15
e 97 15
e 100 15
e 18 16
e 21 16
e 22 16
e 32 16
e 33 16
e 38 16
e 40 16
e 43 16
e 45 16
e 47 16
e 50 16
e 56 16
e 57 16
e 60 16
e 64 16
e 69 16
e 71 16
e 72 16
e 79 16
e 83 16
e 88 16
e 89 16
e 98 16
e 20 17
e 22 17
e 26 17
e 27 17
e 34 17
e 35 17
e 42 17
e 44 17
e 46 17
e 51 17
e 59 17
e 61 17
e 64 17
e 67 17
e 68 17
e 69 17
e 80 17
e 82 17
e 91 17
e 19 18
e 20 18
e 24 18
e 27 18
e 35 18
e 36 18
e 37 18
e 40 18
e 45 18
e 47 18
e 49 18
e 51 18
e 52 18
e 63 18
e 67 18
e 73 18
e 74 18
e 76 18
e 80 18
e 86 18
e 91 18
e 92 18
e 95 18
e 96 18
e 23 19
e 28 19
e 33 19
e 36 19
e 46 19
e 47 19
e 48 19
e 50 19
e 51 19
e 54 19
e 61 19
e 67 19
e 69 19
e 71 19
e 72 19
e 80 19
e 81 19
e 92 19
e 100 19
e 23 20
e 26 20
e 27 20
e 29 20
e 45 20
e 47 20
e 48 20
e 50 20
e 53 20
e 58 20
e 63 20
e 65 20
e 67 20
e 70 20
e 71 20
e 74 20
e 75 20
e 76 20
e 78 20
e 80 20
e 83 20
e 85 20
e 86 20
e 89 20
e 91 20
e 95 20
e 97 20
e 98 20
e 99 20
e 24 21
e 27 21
e 34 21
e 39 21
e 41 21
e 44 21
e 50 21
e 63 21
e 65 21
e 66 21
e 67 21
e 69 21
e 76 21
e 84 21
e 85 21
e 87 21
e 88 21
e 92 21
e 93 21
e 97 21
e 100 21
e 28 22
e 31 22
e 39 22
e 47 22
e 48 22
e 51 22
e 61 22
e 65 22
e 71 22
e 73 22
e 77 22
e 79 22
e 85 22
e 86 22
e 93 22
e 100 22
e 35 23
e 43 23
e 47 23
e 48 23
e 49 23
e 54 23
e 58 23
e 61 23
e 65 23
e 76 23
e 77 23
e 84 23
e 87 23
e 89 23
e 90 23
e 94 23
e 30 24
e 32 24
e 33 24
e 37 24
e 38 24
e 41 24
e 54 24
e 57 24
e 59 24
e 60 24
e 62 24
e 63 24
e 67 24
e 69 24
e 74 24
e 75 24
e 85 24
e 87 24
e 90 24
e 96 24
e 100 24
e 26 25
e 29 25
e 30 25
e 35 25
e 36 25
e 40 25
e 42 25
e 47 25
e 49 25
e 50 25
e 56 25
e 65 25
e 70 25
e 72 25
e 75 25
e 84 25
e 85 25
e 87 25
e 89 25
e 91 25
e 32 26
e 40 26
e 41 26
e 49 26
e 50 26
e 51 26
e 56 26
e 61 26
e 62 26
e 64 26
e 70 26
e 78 26
e 79 26
e 84 26
e 90 26
e 96 26
e 28 27
e 30 27
e 33 27
e 45 27
e 46 27
e 48 27
e 50 27
e 52 27
e 56 27
e 70 27
e 76 27
e 81 27
e 84 27
e 85 27
e 88 27
e 89 27
e 90 27
e 92 27
e 95 27
e 96 27
e 33 28
e 38 28
e 41 28
e 49 28
e 50 28
e 57 28
e 58 28
e 60 28
e 61 28
e 62 28
e 64 28
e 67 28
e 68 28
e 71 28
e 74 28
e 75 28
e 79 28
e 82 28
e 91 28
e 94 28
e 96 28
e 30 29
e 34 29
e 36 29
e 39 29
e 45 29
e 50 29
e 60 29
e 64 29
e 69 29
e 73 29
e 75 29
e 77 29
e 85 29
e 86 29
e 87 29
e 89 29
e 31 30
e 39 30
e 41 30
e 44 30
e 52 30
e 56 30
e 64 30
e 66 30
e 70 30
e 74 30
e 76 30
e 79 30
e 82 30
e 84 30
e 85 30
e 86 30
e 93 30
e 100 30
e 33 31
e 35 31
e 46 31
e 55 31
e 56 31
e 58 31
e 62 31
e 64 31
e 70 31
e 72 31
e 82 31
e 90 31
e 100 31
e 41 32
e 43 32
e 44 32
e 45 32
e 51 32
e 52 32
e 53 32
e 64 32
e 69 32
e 70 32
e 73 32
e 83 32
e 84 32
e 85 32
e 86 32
e 87 32
e 89 32
e 91 32
e 95 32
e 96 32
e 97 32
e 35 33
e 37 33
e 40 33
e 41 33
e 48 33
e 54 33
e 59 33
e 61 33
e 70 33
e 72 33
e 73 33
e 78 33
e 83 33
e 88 33
e 89 33
e 93 33
e 96 33
e 36 34
e 50 34
e 56 34
e 60 34
e 69 34
e 70 34
e 73 34
e 81 34
e 83 34
e 88 34
e 94 34
e 95 34
e 100 34
e 38 35
e 39 35
e 42 35
e 51 35
e 55 35
e 56 35
e 61 35
e 65 35
e 70 35
e 71 35
e 73 35
e 80 35
e 84 35
e 85 35
e 93 35
e 100 35
e 37 36
e 38 36
e 40 36
e 46 36
e 48 36
e 53 36
e 58 36
e 59 36
e 62 36
e 63 36
e 65 36
e 66 36
e 68 36
e 69 36
e 81 36
e 87 36
e 89 36
e 91 36
e 98 36
e 99 36
e 41 37
e 52 37
e 54 37
e 58 37
e 59 37
e 65 37
e 67 37
e 68 37
e 71 37
e 82 37
e 84 37
e 85 37
e 91 37
e 94 37
e 98 37
e 100 37
e 46 38
e 54 38
e 65 38
e 66 38
e 70 38
e 73 38
e 83 38
e 87 38
e 93 38
e 40 39
e 41 39
e 42 39
e 46 39
e 53 39
e 56 39
e 58 39
e 60 39
e 61 39
e 63 39
e 71 39
e 72 39
e 77 39
e 80 39
e 86 39
e 89 39
e 90 39
e 94 39
e 41 40
e 46 40
e 47 40
e 49 40
e 53 40
e 56 40
e 60 40
e 66 40
e 67 40
e 69 40
e 72 40
e 73 40
e 74 40
e 77 40
e 84 40
e 87 40
e 90 40
e 94 40
e 96 40
e 99 40
e 42 41
e 44 41
e 45 41
e 48 41
e 49 41
e 51 41
e 60 41
e 61 41
e 64 41
e 72 41
e 76 41
e 78 41
e 79 41
e 89 41
e 91 41
e 93 41
e 98 41
e 100 41
e 44 42
e 55 42
e 57 42
e 60 42
e 62 42
e 63 42
e 67 42
e 68 42
e 75 42
e 78 42
e 80 42
e 83 42
e 84 42
e 92 42
e 93 42
e 97 42
e 99 42
e 46 43
e 55 43
e 56 43
e 57 43
e 61 43
e 62 43
e 64 43
e 67 43
e 79 43
e 87 43
e 46 44
e 48 44
e 56 44
e 66 44
e 69 44
e 71 44
e 76 44
e 78 44
e 85 44
e 86 44
e 90 44
e 92 44
e 93 44
e 95 44
e 49 45
e 52 45
e 53 45
e 59 45
e 62 45
e 67 45
e 69 45
e 71 45
e 72 45
e 80 45
e 81 45
e 83 45
e 86 45
e 91 45
e 96 45
e 97 45
e 99 45
e 100 45
e 55 46
e 62 46
e 68 46
e 76 46
e 81 46
e 85 46
e 94 46
e 97 46
e 98 46
e 99 46
e 52 47
e 55 47
e 60 47
e 61 47
e 63 47
e 65 47
e 74 47
e 77 47
e 79 47
e 81 47
e 82 47
e 83 47
e 88 47
e 90 47
e 96 47
e 97 47
e 49 48
e 50 48
e 51 48
e 56 48
e 59 48
e 60 48
e 65 48
e 66 48
e 70 48
e 72 48
e 75 48
e 76 48
e 78 48
e 79 48
e 86 48
e 91 48
e 94 48
e 50 49
e 53 49
e 61 49
e 62 49
e 63 49
e 65 49
e 69 49
e 77 49
e 80 49
e 81 49
e 86 49
e 88 49
e 95 49
e 97 49
e 53 50
e 61 50
e 65 50
e 67 50
e 70 50
e 72 50
e 73 50
e 76 50
e 79 50
e 81 50
e 86 50
e 96 50
e 53 51
e 55 51
e 65 51
e 66 51
e 71 51
e 72 51
e 75 51
e 79 51
e 88 51
e 96 51
e 99 51
e 58 52
e 66 52
e 69 52
e 75 52
e 86 52
e 87 52
e 88 52
e 93 52
e 94 52
e 55 53
e 63 53
e 66 53
e 71 53
e 80 53
e 87 53
e 64 54
e 72 54
e 73 54
e 74 54
e 75 54
e 82 54
e 84 54
e 86 54
e 87 54
e 95 54
e 63 55
e 68 55
e 72 55
e 74 55
e 80 55
e 87 55
e 88 55
e 89 55
e 92 55
e 66 56
e 67 56
e 68 56
e 70 56
e 72 56
e 75 56
e 79 56
e 80 56
e 82 56
e 86 56
e 89 56
e 100 56
e 61 57
e 64 57
e 72 57
e 76 57
e 85 57
e 89 57
e 97 57
e 98 57
e 60 58
e 61 58
e 62 58
e 64 58
e 71 58
e 73 58
e 78 58
e 79 58
e 82 58
e 97 58
e 98 58
e 99 58
e 100 58
e 63 59
e 64 59
e 67 59
e 69 59
e 74 59
e 76 59
e 84 59
e 86 59
e 100 59
e 61 60
e 62 60
e 65 60
e 68 60
e 72 60
e 76 60
e 79 60
e 80 60
e 81 60
e 82 60
e 84 60
e 94 60
e 96 60
e 98 60
e 71 61
e 73 61
e 74 61
e 76 61
e 79 61
e 81 61
e 85 61
e 87 61
e 96 61
e 99 61
e 64 62
e 68 62
e 69 62
e 74 62
e 76 62
e 77 62
e 82 62
e 87 62
e 88 62
e 91 62
e 95 62
e 99 62
e 65 63
e 66 63
e 75 63
e 76 63
e 78 63
e 82 63
e 85 63
e 90 63
e 91 63
e 97 63
e 100 63
e 68 64
e 70 64
e 72 64
e 75 64
e 76 64
e 78 64
e 84 64
e 90 64
e 99 64
e 68 65
e 77 65
e 85 65
e 88 65
e 100 65
e 68 66
e 73 66
e 75 66
e 76 66
e 78 66
e 81 66
e 88 66
e 91 66
e 93 66
e 94 66
e 98 66
e 99 66
e 68 67
e 72 67
e 73 67
e 78 67
e 83 67
e 86 67
e 88 67
e 92 67
e 95 67
e 87 68
e 93 68
e 94 68
e 97 68
e 70 69
e 80 69
e 82 69
e 73 70
e 76 70
e 77 70
e 78 70
e 83 70
e 92 70
e 94 70
e 76 71
e 87 71
e 95 71
e 98 71
e 78 72
e 81 72
e 83 72
e 84 72
e 85 72
e 92 72
e 96 72
e 74 73
e 76 73
e 82 73
e 91 73
e 95 73
e 75 74
e 80 74
e 89 74
e 92 74
e 98 74
e 82 75
e 84 75
e 86 75
e 87 75
e 78 76
e 81 76
e 82 76
e 87 76
e 89 76
e 92 76
e 99 76
e 84 77
e 96 77
e 82 78
e 84 78
e 85 78
e 91 78
e 80 79
e 81 79
e 82 79
e 84 79
e 87 79
e 88 79
e 90 79
e 93 79
e 94 79
e 98 79
e 81 80
e 82 80
e 84 80
e 86 80
e 91 80
e 94 80
e 96 80
e 97 80
e 98 80
e 100 80
e 82 81
e 85 81
e 86 81
e 90 81
e 94 81
e 98 82
e 85 83
e 89 83
e 96 83
e 100 83
e 90 84
e 91 84
e 93 84
e 95 84
e 96 84
e 96 85
e 98 85
e 90 86
e 93 86
e 99 86
e 92 87
e 96 87
e 98 87
e 100 87
e 91 88
e 93 88
e 94 88
e 97 88
e 98 88
e 92 89
e 96 89
e 97 89
e 91 90
e 93 90
e 97 90
e 92 91
e 94 91
e 93 92
e 95 92
e 97 93
e 99 93
e 100 95
e 98 97
e 100 97
e 99 98
e 100 98
